(set-logic BV) (define-fun origCir ((i22 Bool) (i21 Bool) (i20 Bool) (i23 Bool)) Bool (and (and (and (not i21) (not i20)) (not i22)) (not i23))) (synth-fun skel ((i22 Bool) (i21 Bool) (i20 Bool) (i23 Bool)) Bool) (declare-var i22 Bool) (declare-var i21 Bool) (declare-var i20 Bool) (declare-var i23 Bool) (constraint (= (origCir i22 i21 i20 i23) (skel i22 i21 i20 i23))) (check-synth)
